<number of tasks>
50

<cycle time>
1000

<order strength>
0.195


<task times>
1 632
2 281
3 721
4 586
5 572
6 628
7 643
8 742
9 460
10 415
11 453
12 418
13 624
14 525
15 500
16 566
17 630
18 571
19 602
20 668
21 716
22 392
23 460
24 342
25 642
26 350
27 530
28 643
29 439
30 390
31 532
32 618
33 380
34 627
35 575
36 504
37 693
38 364
39 464
40 539
41 442
42 579
43 264
44 570
45 547
46 429
47 511
48 516
49 342
50 612

<precedence relations>
1,28
2,9
3,8
4,29
5,6
5,7
6,12
6,13
6,14
6,15
7,10
7,11
8,16
8,22
8,30
10,24
11,17
12,20
12,26
13,41
14,18
14,21
15,19
15,22
15,25
16,23
19,32
20,29
21,27
21,30
21,31
23,28
25,31
27,34
28,32
28,33
28,35
28,36
29,37
29,48
30,38
32,39
32,46
33,41
33,43
35,40
35,44
37,42
37,45
39,49
45,47
45,49
45,50
46,48

<end>
